c FILE /home/rafael/Documents/HappySet/MIHS/inputs/happygen/output/graph_scale_free_k4_p0.3_v50_20241127_082427.txt
c SOURCE This is a scale-free graph formed for the happy graph colouring problem.
c DESCRIPTION It was generated using the problem generator of Rhyd Lewis
c
c GRAPH STATS
c Seed                             = -1142153264
c Number of Nodes                  = 50
c Number of colours k              = 4
c Number of pre-assignments        = 15
c Number of links per new node     = 5
c Density                          = 0.191837
c 
c The degrees of nodes 1 to 50, respectively, are as follows 
c [27, 26, 21, 20, 18, 17, 15, 14, 14, 12, 12, 11, 10, 10, 10, 9, 9, 9, 9, 8, 8, 8, 8, 8, 8, 8, 
c  8, 7, 7, 7, 7, 7, 6, 6, 6, 6, 6, 6, 6, 6, 5, 5, 5, 5, 5, 5, 5, 5, 5, 5] 
c  
p edge 50 235 4
e 1 2
e 1 3
e 1 4
e 1 5
e 1 6
e 1 7
e 1 8
e 1 9
e 1 10
e 1 11
e 1 15
e 1 17
e 1 20
e 1 21
e 1 22
e 1 24
e 1 27
e 1 28
e 1 29
e 1 32
e 1 33
e 1 34
e 1 35
e 1 36
e 1 39
e 1 43
e 1 50
e 2 3
e 2 4
e 2 6
e 2 7
e 2 9
e 2 12
e 2 13
e 2 14
e 2 15
e 2 17
e 2 19
e 2 21
e 2 22
e 2 23
e 2 30
e 2 31
e 2 32
e 2 35
e 2 36
e 2 39
e 2 40
e 2 42
e 2 45
e 2 46
e 2 47
e 3 4
e 3 6
e 3 7
e 3 9
e 3 11
e 3 14
e 3 17
e 3 18
e 3 20
e 3 22
e 3 24
e 3 25
e 3 31
e 3 33
e 3 35
e 3 36
e 3 41
e 3 45
e 3 48
e 4 5
e 4 6
e 4 7
e 4 8
e 4 9
e 4 10
e 4 12
e 4 13
e 4 20
e 4 21
e 4 24
e 4 28
e 4 37
e 4 38
e 4 39
e 4 43
e 4 46
e 5 6
e 5 7
e 5 8
e 5 9
e 5 10
e 5 11
e 5 13
e 5 16
e 5 21
e 5 29
e 5 30
e 5 34
e 5 38
e 5 40
e 5 41
e 5 49
e 6 8
e 6 11
e 6 12
e 6 16
e 6 21
e 6 23
e 6 24
e 6 29
e 6 30
e 6 33
e 6 36
e 6 43
e 7 8
e 7 10
e 7 11
e 7 14
e 7 19
e 7 20
e 7 28
e 7 35
e 7 38
e 7 46
e 8 10
e 8 11
e 8 13
e 8 14
e 8 18
e 8 32
e 8 42
e 8 44
e 8 46
e 9 17
e 9 18
e 9 29
e 9 31
e 9 32
e 9 33
e 9 34
e 9 47
e 9 48
e 10 11
e 10 13
e 10 22
e 10 23
e 10 26
e 10 28
e 10 38
e 11 14
e 11 18
e 11 20
e 11 30
e 11 49
e 12 13
e 12 18
e 12 20
e 12 24
e 12 25
e 12 35
e 12 38
e 12 42
e 13 15
e 13 16
e 13 23
e 13 41
e 14 16
e 14 28
e 14 33
e 14 37
e 14 41
e 15 16
e 15 25
e 15 26
e 15 28
e 15 40
e 15 42
e 15 50
e 16 22
e 16 25
e 16 43
e 16 44
e 17 21
e 17 34
e 17 39
e 17 45
e 17 49
e 18 25
e 18 31
e 18 47
e 18 49
e 19 23
e 19 25
e 19 27
e 19 37
e 19 40
e 19 44
e 19 49
e 20 37
e 20 41
e 21 22
e 21 23
e 22 36
e 22 47
e 23 26
e 23 30
e 24 26
e 24 27
e 24 45
e 25 27
e 25 37
e 26 27
e 26 30
e 26 39
e 26 40
e 27 35
e 27 46
e 27 50
e 28 29
e 29 34
e 29 43
e 30 31
e 31 48
e 31 50
e 32 34
e 32 44
e 32 48
e 33 42
e 36 48
e 37 44
e 38 45
e 39 47
e 40 50
n 14 1
n 19 3
n 20 2
n 24 4
n 29 4
n 30 2
n 32 1
n 35 2
n 38 2
n 39 1
n 43 4
n 47 1
n 48 1
n 49 3
n 50 4
